(declare-fun Constructed_Argument_t () String)
(declare-fun Constructed_Argument_2_t () String)
(declare-fun Constructed_Argument_3_t () String)
(declare-fun CreateAsClass () Bool)
(declare-fun Constructed_Argument_2_elements_sync_0_t () String)
(declare-fun Constructed_Argument_2_elements_sync_1_t () String)
(declare-fun Constructed_Argument_2_elements_matchBase_2_t () String)
(declare-fun Constructed_Argument_2_elements_silent_3_t () String)
(declare-fun Constructed_Argument_2_elements_strict_4_t () String)
(declare-fun Constructed_Argument_2_elements_realpath_5_t () String)
(declare-fun Constructed_Argument_2_elements_realpathCache_6_t () String)
(declare-fun Constructed_Argument_2_elements_follow_7_t () String)
(declare-fun Constructed_Argument_2_elements_dot_8_t () String)
(declare-fun Constructed_Argument_2_elements_mark_9_t () String)
(declare-fun Constructed_Argument_2_elements_nodir_10_t () String)
(declare-fun Constructed_Argument_2_elements_sync_11_t () String)
(declare-fun Constructed_Argument_2_elements_nounique_12_t () String)
(assert (= Constructed_Argument_t "boolean"))
(assert (= Constructed_Argument_2_t "object"))
(assert (not (= Constructed_Argument_3_t "string")))
(assert (not (= Constructed_Argument_3_t "number")))
(assert (not (= Constructed_Argument_3_t "boolean")))
(assert (not (= Constructed_Argument_3_t "object")))
(assert (not (= Constructed_Argument_3_t "array_number")))
(assert (not (= Constructed_Argument_3_t "array_string")))
(assert (not (= Constructed_Argument_3_t "array_bool")))
(assert (not (= Constructed_Argument_3_t "null")))
(assert (not CreateAsClass))
(assert (not (= Constructed_Argument_2_elements_sync_0_t "string")))
(assert (not (= Constructed_Argument_2_elements_sync_0_t "number")))
(assert (not (= Constructed_Argument_2_elements_sync_0_t "boolean")))
(assert (not (= Constructed_Argument_2_elements_sync_0_t "object")))
(assert (not (= Constructed_Argument_2_elements_sync_0_t "array_number")))
(assert (not (= Constructed_Argument_2_elements_sync_0_t "array_string")))
(assert (not (= Constructed_Argument_2_elements_sync_0_t "array_bool")))
(assert (not (= Constructed_Argument_2_elements_sync_0_t "null")))
(assert (not (= Constructed_Argument_2_elements_sync_1_t "string")))
(assert (not (= Constructed_Argument_2_elements_sync_1_t "number")))
(assert (not (= Constructed_Argument_2_elements_sync_1_t "boolean")))
(assert (not (= Constructed_Argument_2_elements_sync_1_t "object")))
(assert (not (= Constructed_Argument_2_elements_sync_1_t "array_number")))
(assert (not (= Constructed_Argument_2_elements_sync_1_t "array_string")))
(assert (not (= Constructed_Argument_2_elements_sync_1_t "array_bool")))
(assert (not (= Constructed_Argument_2_elements_sync_1_t "null")))
(assert (not (= Constructed_Argument_2_elements_matchBase_2_t "string")))
(assert (not (= Constructed_Argument_2_elements_matchBase_2_t "number")))
(assert (not (= Constructed_Argument_2_elements_matchBase_2_t "boolean")))
(assert (not (= Constructed_Argument_2_elements_matchBase_2_t "object")))
(assert (not (= Constructed_Argument_2_elements_matchBase_2_t "array_number")))
(assert (not (= Constructed_Argument_2_elements_matchBase_2_t "array_string")))
(assert (not (= Constructed_Argument_2_elements_matchBase_2_t "array_bool")))
(assert (not (= Constructed_Argument_2_elements_matchBase_2_t "null")))
(assert (not (= Constructed_Argument_2_elements_silent_3_t "string")))
(assert (not (= Constructed_Argument_2_elements_silent_3_t "number")))
(assert (not (= Constructed_Argument_2_elements_silent_3_t "boolean")))
(assert (not (= Constructed_Argument_2_elements_silent_3_t "object")))
(assert (not (= Constructed_Argument_2_elements_silent_3_t "array_number")))
(assert (not (= Constructed_Argument_2_elements_silent_3_t "array_string")))
(assert (not (= Constructed_Argument_2_elements_silent_3_t "array_bool")))
(assert (not (= Constructed_Argument_2_elements_silent_3_t "null")))
(assert (not (= Constructed_Argument_2_elements_strict_4_t "string")))
(assert (not (= Constructed_Argument_2_elements_strict_4_t "number")))
(assert (not (= Constructed_Argument_2_elements_strict_4_t "boolean")))
(assert (not (= Constructed_Argument_2_elements_strict_4_t "object")))
(assert (not (= Constructed_Argument_2_elements_strict_4_t "array_number")))
(assert (not (= Constructed_Argument_2_elements_strict_4_t "array_string")))
(assert (not (= Constructed_Argument_2_elements_strict_4_t "array_bool")))
(assert (not (= Constructed_Argument_2_elements_strict_4_t "null")))
(assert (not (= Constructed_Argument_2_elements_realpath_5_t "string")))
(assert (not (= Constructed_Argument_2_elements_realpath_5_t "number")))
(assert (not (= Constructed_Argument_2_elements_realpath_5_t "boolean")))
(assert (not (= Constructed_Argument_2_elements_realpath_5_t "object")))
(assert (not (= Constructed_Argument_2_elements_realpath_5_t "array_number")))
(assert (not (= Constructed_Argument_2_elements_realpath_5_t "array_string")))
(assert (not (= Constructed_Argument_2_elements_realpath_5_t "array_bool")))
(assert (not (= Constructed_Argument_2_elements_realpath_5_t "null")))
(assert (not (= Constructed_Argument_2_elements_realpathCache_6_t "string")))
(assert (not (= Constructed_Argument_2_elements_realpathCache_6_t "number")))
(assert (not (= Constructed_Argument_2_elements_realpathCache_6_t "boolean")))
(assert (not (= Constructed_Argument_2_elements_realpathCache_6_t "object")))
(assert (not (= Constructed_Argument_2_elements_realpathCache_6_t "array_number")))
(assert (not (= Constructed_Argument_2_elements_realpathCache_6_t "array_string")))
(assert (not (= Constructed_Argument_2_elements_realpathCache_6_t "array_bool")))
(assert (not (= Constructed_Argument_2_elements_realpathCache_6_t "null")))
(assert (not (= Constructed_Argument_2_elements_follow_7_t "string")))
(assert (not (= Constructed_Argument_2_elements_follow_7_t "number")))
(assert (not (= Constructed_Argument_2_elements_follow_7_t "boolean")))
(assert (not (= Constructed_Argument_2_elements_follow_7_t "object")))
(assert (not (= Constructed_Argument_2_elements_follow_7_t "array_number")))
(assert (not (= Constructed_Argument_2_elements_follow_7_t "array_string")))
(assert (not (= Constructed_Argument_2_elements_follow_7_t "array_bool")))
(assert (not (= Constructed_Argument_2_elements_follow_7_t "null")))
(assert (not (= Constructed_Argument_2_elements_dot_8_t "string")))
(assert (not (= Constructed_Argument_2_elements_dot_8_t "number")))
(assert (not (= Constructed_Argument_2_elements_dot_8_t "boolean")))
(assert (not (= Constructed_Argument_2_elements_dot_8_t "object")))
(assert (not (= Constructed_Argument_2_elements_dot_8_t "array_number")))
(assert (not (= Constructed_Argument_2_elements_dot_8_t "array_string")))
(assert (not (= Constructed_Argument_2_elements_dot_8_t "array_bool")))
(assert (not (= Constructed_Argument_2_elements_dot_8_t "null")))
(assert (not (= Constructed_Argument_2_elements_mark_9_t "string")))
(assert (not (= Constructed_Argument_2_elements_mark_9_t "number")))
(assert (not (= Constructed_Argument_2_elements_mark_9_t "boolean")))
(assert (not (= Constructed_Argument_2_elements_mark_9_t "object")))
(assert (not (= Constructed_Argument_2_elements_mark_9_t "array_number")))
(assert (not (= Constructed_Argument_2_elements_mark_9_t "array_string")))
(assert (not (= Constructed_Argument_2_elements_mark_9_t "array_bool")))
(assert (not (= Constructed_Argument_2_elements_mark_9_t "null")))
(assert (not (= Constructed_Argument_2_elements_nodir_10_t "string")))
(assert (not (= Constructed_Argument_2_elements_nodir_10_t "number")))
(assert (not (= Constructed_Argument_2_elements_nodir_10_t "boolean")))
(assert (not (= Constructed_Argument_2_elements_nodir_10_t "object")))
(assert (not (= Constructed_Argument_2_elements_nodir_10_t "array_number")))
(assert (not (= Constructed_Argument_2_elements_nodir_10_t "array_string")))
(assert (not (= Constructed_Argument_2_elements_nodir_10_t "array_bool")))
(assert (not (= Constructed_Argument_2_elements_nodir_10_t "null")))
(assert (not (= Constructed_Argument_2_elements_sync_11_t "string")))
(assert (not (= Constructed_Argument_2_elements_sync_11_t "number")))
(assert (not (= Constructed_Argument_2_elements_sync_11_t "boolean")))
(assert (not (= Constructed_Argument_2_elements_sync_11_t "object")))
(assert (not (= Constructed_Argument_2_elements_sync_11_t "array_number")))
(assert (not (= Constructed_Argument_2_elements_sync_11_t "array_string")))
(assert (not (= Constructed_Argument_2_elements_sync_11_t "array_bool")))
(assert (not (= Constructed_Argument_2_elements_sync_11_t "null")))
(assert (not (= Constructed_Argument_2_elements_nounique_12_t "string")))
(assert (not (= Constructed_Argument_2_elements_nounique_12_t "number")))
(assert (= Constructed_Argument_2_elements_nounique_12_t "boolean"))
(check-sat)
